;; Original file: term_242.smt2
(set-logic HORN)
(declare-fun starexecinv1 (Real Real Real Real Real) Bool)

(assert (forall ((|XXX0prime| Real)
         (|XXX1prime| Real)
         (|XXX2prime| Real)
         (|gh0prime| Real)
         (|gh1prime| Real))
  (let ((a!1 (> |gh0prime| (* (+ 0 (- 1)) |XXX0prime|)))
        (a!2 (> |gh0prime| (* (+ 0 (- 1)) |XXX1prime|)))
        (a!3 (> |gh0prime| (* (+ 0 (- 1)) |XXX2prime|)))
        (a!4 (> |gh1prime| (* (+ 0 (- 1)) |XXX0prime|)))
        (a!5 (> |gh1prime| (* (+ 0 (- 1)) |XXX1prime|)))
        (a!6 (> |gh1prime| (* (+ 0 (- 1)) |XXX2prime|)))
        (a!7 (+ (* (+ 0 (- 1)) |XXX0prime|) (* (+ 0 1) |XXX1prime|)))
        (a!8 (+ (* (+ 0 (- 1)) |XXX0prime|) (* (+ 0 1) |XXX2prime|)))
        (a!9 (+ (* (+ 0 1) |XXX0prime|) (* (+ 0 (- 1)) |XXX2prime|)))
        (a!10 (+ (* (+ 0 1) |XXX1prime|) (* (+ 0 (- 1)) |XXX2prime|)))
        (a!11 (+ (* (+ 0 1) |XXX0prime|)
                 (* (+ 0 (- 1)) |XXX1prime|)
                 (* (+ 0 1) |XXX2prime|)))
        (a!12 (+ (* (+ 0 (- 1)) |XXX0prime|)
                 (* (+ 0 (- 1)) |XXX1prime|)
                 (* (+ 0 1) |XXX2prime|)
                 (+ 0 1)))
        (a!13 (+ (* (+ 0 1) |XXX0prime|)
                 (* (+ 0 (- 1)) |XXX1prime|)
                 (* (+ 0 (- 1)) |XXX2prime|)
                 (+ 0 1)))
        (a!14 (+ (* (+ 0 (- 1)) |XXX0prime|)
                 (* (+ 0 1) |XXX1prime|)
                 (* (+ 0 (- 1)) |XXX2prime|)
                 (+ 0 1)))
        (a!15 (> |gh0prime|
                 (+ (* (+ 0 1) |XXX0prime|)
                    (* (+ 0 1) |XXX1prime|)
                    (* (+ 0 1) |XXX2prime|)
                    (+ 0 1))))
        (a!16 (+ (* (+ 0 1) |XXX0prime|)
                 (* (+ 0 1) |XXX1prime|)
                 (* (+ 0 (- 1)) |XXX2prime|)
                 (+ 0 1)))
        (a!17 (+ (* (+ 0 (- 1)) |XXX0prime|)
                 (* (+ 0 1) |XXX1prime|)
                 (* (+ 0 1) |XXX2prime|)
                 (+ 0 1)))
        (a!18 (+ (* (+ 0 (- 1)) |XXX0prime|)
                 (* (+ 0 (- 1)) |XXX1prime|)
                 (* (+ 0 (- 1)) |XXX2prime|)
                 (+ 0 1))))
  (let ((a!19 (and true
                   (<= (+ 0 0) |XXX0prime|)
                   (< |XXX0prime| |XXX1prime|)
                   (= |XXX2prime| (+ (+ 0 1) |XXX0prime|))
                   (> |gh0prime| |XXX0prime|)
                   (> |gh0prime| |XXX1prime|)
                   (> |gh0prime| |XXX2prime|)
                   a!1
                   a!2
                   a!3
                   (> |gh1prime| |XXX0prime|)
                   (> |gh1prime| |XXX1prime|)
                   (> |gh1prime| |XXX2prime|)
                   a!4
                   a!5
                   a!6
                   (> |gh1prime| (+ 0 1))
                   (> |gh1prime| a!7)
                   (> |gh1prime| a!8)
                   (> |gh1prime| a!9)
                   (> |gh1prime| a!10)
                   (> |gh1prime| (+ a!8 (+ 0 1)))
                   (> |gh0prime| (+ 0 1))
                   (> |gh0prime| a!7)
                   (> |gh0prime| a!8)
                   (> |gh0prime| a!9)
                   (> |gh0prime| a!10)
                   (> |gh0prime| (+ a!8 (+ 0 1)))
                   (> |gh0prime| a!11)
                   (> |gh0prime| a!12)
                   (> |gh0prime| a!13)
                   (> |gh0prime| a!14)
                   a!15
                   (> |gh0prime| a!16)
                   (> |gh0prime| a!17)
                   (> |gh0prime| a!18))))
    (=> a!19
        (starexecinv1 |XXX0prime|
                         |XXX1prime|
                         |XXX2prime|
                         |gh0prime|
                         |gh1prime|))))))
(assert (forall ((|XXX0| Real)
         (|XXX1| Real)
         (|XXX2| Real)
         (gh0 Real)
         (gh1 Real)
         (|XXX0prime| Real)
         (|XXX1prime| Real)
         (|XXX2prime| Real)
         (|gh1prime| Real)
         (|gh0prime| Real))
  (let ((a!1 (= |XXX2prime|
                (ite (<= |XXX2| |XXX1|)
                     (+ |XXX2| (+ 0 1))
                     |XXX2|)))
        (a!2 (and (= |gh1prime| (- gh1 (+ 0 1)))
                  (> gh1 (+ 0 0))
                  (= |gh0prime| gh0)))
        (a!3 (> |gh1prime| (* (+ 0 (- 1)) |XXX0prime|)))
        (a!4 (> |gh1prime| (* (+ 0 (- 1)) |XXX1prime|)))
        (a!5 (> |gh1prime| (* (+ 0 (- 1)) |XXX2prime|)))
        (a!6 (+ (* (+ 0 (- 1)) |XXX0prime|) (* (+ 0 1) |XXX1prime|)))
        (a!7 (+ (* (+ 0 (- 1)) |XXX0prime|) (* (+ 0 1) |XXX2prime|)))
        (a!8 (+ (* (+ 0 1) |XXX0prime|) (* (+ 0 (- 1)) |XXX2prime|)))
        (a!9 (+ (* (+ 0 1) |XXX1prime|) (* (+ 0 (- 1)) |XXX2prime|)))
        (a!10 (+ (* (+ 0 1) |XXX0prime|)
                 (* (+ 0 (- 1)) |XXX1prime|)
                 (* (+ 0 1) |XXX2prime|)))
        (a!11 (+ (* (+ 0 (- 1)) |XXX0prime|)
                 (* (+ 0 (- 1)) |XXX1prime|)
                 (* (+ 0 1) |XXX2prime|)
                 (+ 0 1)))
        (a!12 (+ (* (+ 0 1) |XXX0prime|)
                 (* (+ 0 (- 1)) |XXX1prime|)
                 (* (+ 0 (- 1)) |XXX2prime|)
                 (+ 0 1)))
        (a!13 (+ (* (+ 0 (- 1)) |XXX0prime|)
                 (* (+ 0 1) |XXX1prime|)
                 (* (+ 0 (- 1)) |XXX2prime|)
                 (+ 0 1)))
        (a!14 (> |gh1prime|
                 (+ (* (+ 0 1) |XXX0prime|)
                    (* (+ 0 1) |XXX1prime|)
                    (* (+ 0 1) |XXX2prime|)
                    (+ 0 1))))
        (a!15 (+ (* (+ 0 1) |XXX0prime|)
                 (* (+ 0 1) |XXX1prime|)
                 (* (+ 0 (- 1)) |XXX2prime|)
                 (+ 0 1)))
        (a!16 (+ (* (+ 0 (- 1)) |XXX0prime|)
                 (* (+ 0 1) |XXX1prime|)
                 (* (+ 0 1) |XXX2prime|)
                 (+ 0 1)))
        (a!17 (+ (* (+ 0 (- 1)) |XXX0prime|)
                 (* (+ 0 (- 1)) |XXX1prime|)
                 (* (+ 0 (- 1)) |XXX2prime|)
                 (+ 0 1)))
        (a!19 (+ (* (+ 0 (- 1)) |XXX0|) (* (+ 0 1) |XXX1|)))
        (a!20 (+ (* (+ 0 (- 1)) |XXX0|) (* (+ 0 1) |XXX2|))))
  (let ((a!18 (and (= |gh0prime| (- gh0 (+ 0 1)))
                   (> |gh1prime| |XXX0prime|)
                   (> |gh1prime| |XXX1prime|)
                   (> |gh1prime| |XXX2prime|)
                   a!3
                   a!4
                   a!5
                   (<= gh1 (+ 0 0))
                   (> |gh1prime| (+ 0 1))
                   (> |gh1prime| a!6)
                   (> |gh1prime| a!7)
                   (> |gh1prime| a!8)
                   (> |gh1prime| a!9)
                   (> |gh1prime| (+ a!7 (+ 0 1)))
                   (> |gh1prime| a!10)
                   (> |gh1prime| a!11)
                   (> |gh1prime| a!12)
                   (> |gh1prime| a!13)
                   a!14
                   (> |gh1prime| a!15)
                   (> |gh1prime| a!16)
                   (> |gh1prime| a!17))))
  (let ((a!21 (and (starexecinv1 |XXX0| |XXX1| |XXX2| gh0 gh1)
                   (not (= |XXX2| |XXX0|))
                   (= |XXX0prime| |XXX0|)
                   (= |XXX1prime| |XXX1|)
                   a!1
                   (or a!2 a!18)
                   (>= (* (+ 0 1) |XXX0|) (+ 0 0))
                   (> a!19 (+ 0 0))
                   (>= a!20 (+ 0 1)))))
    (=> a!21
        (starexecinv1 |XXX0prime|
                         |XXX1prime|
                         |XXX2prime|
                         |gh0prime|
                         |gh1prime|)))))))
(assert (forall ((|XXX0| Real)
         (|XXX1| Real)
         (|XXX2| Real)
         (gh0 Real)
         (gh1 Real)
         )
  (let ((a!1 (+ (* (+ 0 (- 1)) |XXX0|) (* (+ 0 1) |XXX1|)))
        (a!2 (+ (* (+ 0 (- 1)) |XXX0|) (* (+ 0 1) |XXX2|))))
  (let ((a!3 (and (starexecinv1 |XXX0| |XXX1| |XXX2| gh0 gh1)
                  (not (= |XXX2| |XXX0|))
                  (< gh0 (+ 0 0))
                  (>= (* (+ 0 1) |XXX0|) (+ 0 0))
                  (> a!1 (+ 0 0))
                  (>= a!2 (+ 0 1)))))
    (=> a!3 false)))))
(check-sat)
